%%%mzn-stat: initTime=0.083373944
%%%mzn-stat: objective=176
%%%mzn-stat: nodes=1677
%%%mzn-stat: restarts=0
%%%mzn-stat: peakDepth=778
%%%mzn-stat: solveTime=0.591650951
%%%mzn-stat: variables=3169
%%%mzn-stat: propagators=2674
%%%mzn-stat: failures=472
%%%mzn-stat: propagations=319590
%%%mzn-stat: nogoods=472
%%%mzn-stat: AverageConflictSize=22.11864406779661
%%%mzn-stat: NumUnitNogoodsLearned=175
%%%mzn-stat: AverageLearnedNogoodLength=193.14618644067798
%%%mzn-stat: AverageBacktrackAmount=0
%%%mzn-stat: AverageLbd=21.860169491525422
%%%mzn-stat-end
maxleg = 176;
succ = array1d(1..100,[61, 81, 9, 23, 40, 63, 83, 75, 16, 87, 68, 85, 6, 99, 2, 73, 64, 41, 17, 46, 14, 36, 18, 39, 53, 32, 86, 19, 20, 97, 58, 51, 55, 45, 95, 26, 35, 1, 89, 91, 66, 24, 29, 48, 72, 52, 59, 22, 37, 78, 79, 82, 38, 15, 12, 5, 31, 7, 28, 92, 60, 10, 69, 42, 43, 33, 4, 47, 27, 93, 62, 65, 77, 80, 25, 84, 100, 21, 76, 49, 94, 50, 13, 88, 98, 44, 8, 90, 30, 3, 96, 57, 74, 70, 67, 54, 34, 71, 56, 11]);
% time elapsed: 7.30 s
----------
==========
% time elapsed: 7.30 s
%%%mzn-stat: initTime=0.083373944
%%%mzn-stat: objective=176
%%%mzn-stat: nodes=1677
%%%mzn-stat: restarts=0
%%%mzn-stat: peakDepth=778
%%%mzn-stat: solveTime=0.591654845
%%%mzn-stat: variables=3169
%%%mzn-stat: propagators=2674
%%%mzn-stat: failures=472
%%%mzn-stat: propagations=319590
%%%mzn-stat: nogoods=472
%%%mzn-stat: AverageConflictSize=22.11864406779661
%%%mzn-stat: NumUnitNogoodsLearned=175
%%%mzn-stat: AverageLearnedNogoodLength=193.14618644067798
%%%mzn-stat: AverageBacktrackAmount=0
%%%mzn-stat: AverageLbd=21.860169491525422
%%%mzn-stat-end
